12 48 9 10
5 2 17 5 20 14 20 11 12 3 6 12 13 19 7 9 14 14 11 11 13 7 20 17 15 9 13 17 10 5 6 8 4 17 8 17 15 18 20 3 4 2 3 15 9 4 18 2 
12.38 7.75 3.69 6.76 4.75 13.21 1.13 5.9 12.73 15.44 14.79 5.75 6.36 12.78 1.79 14.33 9.75 4.57 6.12 4.26 5.41 1.58 13.51 2.12 12.22 14.12 13.25 0.8 12.13 10.67 4.9 10.33 12.24 5.95 8.52 6.83 1.44 4.16 1.8 15.09 15.14 4.52 4.42 14.05 11.32 1.91 0.42 4.24 
5.6 12.14 11.22 11.11 10.37 12.13 3.95 14.11 13.59 10.08 14.92 9.45 12.1 10.12 1.69 13.26 2.46 11.18 13.03 1.78 8.03 2.63 9.05 12.66 12.32 1.55 3.7 11.94 14.91 8.86 13.2 8.32 11.62 8.95 3.94 10.53 7.53 10.92 3.42 5.64 7.23 10.43 12.34 4.36 8.81 9 2.64 10.43 
13.02 13.23 12.25 8.43 14.83 15.02 15.47 10.68 13.56 8.18 11.7 1.67 6.67 2.34 6.9 14.92 9.69 12.58 9.78 13.7 3.83 10.19 14.51 10.79 7.73 14.57 4.23 7.69 13.19 9.39 10.74 10.88 7.97 11.94 6.25 12.33 0.25 10.87 0.87 1.54 14.64 10.09 8.07 7.39 4.35 10.66 5.32 11.85 
3.75 14.76 1.15 15.59 14.11 1.93 14.36 0.61 4.03 10.74 3.57 6.48 9.27 2.7 8.42 8.13 11.94 0.58 10.46 7.4 3.66 0.96 2.89 10.51 12.57 13.85 3.3 0.91 6.02 13.73 5.35 5 9.7 15.71 12.55 6.77 5.26 13.19 15.75 11.87 3.1 13.46 0.26 4.74 10.64 0.08 9.13 15.76 
0.32 10.17 6.44 12.11 10.69 10.31 4.94 3.79 5.81 10.28 5.36 8.88 4.77 8.59 10.95 4.41 13.92 12.93 11.34 3.56 10.89 15.18 9.54 1.2 2.74 15.34 8.67 5.64 3.58 1.38 3.73 9.07 11.41 10.97 14.84 5.32 1.44 5.99 2.1 0.41 1.46 7.97 7.69 14.7 14.77 16 1.23 6.12 
6.54 3.59 11.31 3.08 3.48 7.68 14.64 12.67 6.99 9.27 4.32 10.46 3.74 9.98 15.11 15.94 9.71 5.78 11.63 10.61 10.52 7.2 5.29 13.34 14.19 13.84 1.22 14.6 7.55 10.8 6.08 10.52 13.78 0.72 1.68 11.35 15.22 3.02 0.02 0.42 7.11 1.73 2.28 5.91 8.82 1.22 14.41 9.25 
10.99 13.96 5.81 13.65 12.4 3.21 6.23 2.85 5.7 1.14 8.96 4.66 2.91 13.16 15.61 3.83 2.27 15.08 8.87 2.72 1.64 2.57 0.12 6.03 15.19 1.61 10.73 7.1 5.66 13.76 7.03 3.18 3.35 2.68 15.47 5.93 1.41 5.56 8.28 7.86 7.77 15.21 0.78 7.24 10.68 4.67 12.34 0.1 
15.99 2.15 10.9 10.87 11.73 3.94 6.49 9.82 9.45 6.91 4.13 2.42 12.97 12.66 7.52 0.63 12.95 14.06 6.43 8.81 13.47 1.19 10.28 0.9 11.2 14.22 4.05 9.43 7.28 5.33 9.9 1.74 1.34 9.73 9.53 7.7 12.81 9.28 6.72 14 12.27 10.76 12.26 6.2 7.21 7.19 9.24 1.86 
8.72 15.5 5.03 13.85 4.82 1.45 0.11 13.01 7.55 7.28 10.94 10.5 12.17 14.75 0.92 15.93 15.02 7.07 15.15 4.03 8.92 12.62 1.89 1.54 5.08 11.46 8.24 11.47 15.58 10.43 1.05 12.47 9.89 12.43 12.72 3.58 6.82 8.78 0.12 15.58 1.79 13.58 5.79 10.09 13.74 14.41 14.06 8.32 
8 8 8 8 8 8 8 8 8 8 8 8 8 8 8 8 8 8 8 8 8 8 8 8 8 8 8 8 8 8 8 8 8 8 8 8 8 8 8 8 8 8 8 8 8 8 8 8 
14.61 13.43 1.21 2.12 9.5 7.81 10.48 13.93 6.64 13.79 10.7 12.58 13.2 4.09 10.48 6.53 4.18 5.93 4.59 8.14 15.35 1.99 6.59 6.74 2.42 2.83 5.63 8.19 4.23 15.94 7.98 0.07 7.86 15.73 8.94 15.23 1.46 12.19 7.66 15.87 9.68 11.56 1.41 9.4 3.27 8.08 1.43 5.15 
14.48 11.83 12.51 2.05 7.31 3.92 7.38 7.86 5.26 14.93 11.47 1.87 12.79 3.73 5.39 7.76 11.05 13.48 11.83 12.32 6.49 0.91 15.01 13.7 15.84 11.37 9.71 11.95 15.36 7.17 5.46 5.67 10.29 5.06 13.69 11.62 8.03 3.58 15.15 14.86 0.37 0.86 12.56 15.46 6.58 10.62 15.59 1.98 
1 1 1 1 1 1 1 1 1 1 1 1 1 1 1 1 1 1 1 1 1 1 1 1 1 1 1 1 1 1 1 1 1 1 1 1 1 1 1 1 1 1 1 1 1 1 1 1 
1 1 1 1 1 1 1 1 1 1 1 1 1 1 1 1 1 1 1 1 1 1 1 1 1 1 1 1 1 1 1 1 1 1 1 1 1 1 1 1 1 1 1 1 1 1 1 1 
1 1 1 1 1 1 1 1 1 1 1 1 1 1 1 1 1 1 1 1 1 1 1 1 1 1 1 1 1 1 1 1 1 1 1 1 1 1 1 1 1 1 1 1 1 1 1 1 
1 1 1 1 1 1 1 1 1 1 1 1 1 1 1 1 1 1 1 1 1 1 1 1 1 1 1 1 1 1 1 1 1 1 1 1 1 1 1 1 1 1 1 1 1 1 1 1 
1 1 1 1 1 1 1 1 1 1 1 1 1 1 1 1 1 1 1 1 1 1 1 1 1 1 1 1 1 1 1 1 1 1 1 1 1 1 1 1 1 1 1 1 1 1 1 1 
1 1 1 1 1 1 1 1 1 1 1 1 1 1 1 1 1 1 1 1 1 1 1 1 1 1 1 1 1 1 1 1 1 1 1 1 1 1 1 1 1 1 1 1 1 1 1 1 
1 1 1 1 1 1 1 1 1 1 1 1 1 1 1 1 1 1 1 1 1 1 1 1 1 1 1 1 1 1 1 1 1 1 1 1 1 1 1 1 1 1 1 1 1 1 1 1 
1 1 1 1 1 1 1 1 1 1 1 1 1 1 1 1 1 1 1 1 1 1 1 1 1 1 1 1 1 1 1 1 1 1 1 1 1 1 1 1 1 1 1 1 1 1 1 1 
1 1 1 1 1 1 1 1 1 1 1 1 1 1 1 1 1 1 1 1 1 1 1 1 1 1 1 1 1 1 1 1 1 1 1 1 1 1 1 1 1 1 1 1 1 1 1 1 
1 1 1 1 1 1 1 1 1 1 1 1 1 1 1 1 1 1 1 1 1 1 1 1 1 1 1 1 1 1 1 1 1 1 1 1 1 1 1 1 1 1 1 1 1 1 1 1 
1 1 1 1 1 1 1 1 1 1 1 1 1 1 1 1 1 1 1 1 1 1 1 1 1 1 1 1 1 1 1 1 1 1 1 1 1 1 1 1 1 1 1 1 1 1 1 1 
1 1 1 1 1 1 1 1 1 1 1 1 1 1 1 1 1 1 1 1 1 1 1 1 1 1 1 1 1 1 1 1 1 1 1 1 1 1 1 1 1 1 1 1 1 1 1 1 
0.01 0.01 0.01 0.01 0.01 0.01 0.01 0.01 0.01 0.01 0.01 0.01 0.01 0.01 0.01 0.01 0.01 0.01 0.01 0.01 0.01 0.01 0.01 0.01 0.01 0.01 0.01 0.01 0.01 0.01 0.01 0.01 0.01 0.01 0.01 0.01 0.01 0.01 0.01 0.01 0.01 0.01 0.01 0.01 0.01 0.01 0.01 0.01 
0.02 0.02 0.02 0.02 0.02 0.02 0.02 0.02 0.02 0.02 0.02 0.02 0.02 0.02 0.02 0.02 0.02 0.02 0.02 0.02 0.02 0.02 0.02 0.02 0.02 0.02 0.02 0.02 0.02 0.02 0.02 0.02 0.02 0.02 0.02 0.02 0.02 0.02 0.02 0.02 0.02 0.02 0.02 0.02 0.02 0.02 0.02 0.02 
0.03 0.03 0.03 0.03 0.03 0.03 0.03 0.03 0.03 0.03 0.03 0.03 0.03 0.03 0.03 0.03 0.03 0.03 0.03 0.03 0.03 0.03 0.03 0.03 0.03 0.03 0.03 0.03 0.03 0.03 0.03 0.03 0.03 0.03 0.03 0.03 0.03 0.03 0.03 0.03 0.03 0.03 0.03 0.03 0.03 0.03 0.03 0.03 
0.04 0.04 0.04 0.04 0.04 0.04 0.04 0.04 0.04 0.04 0.04 0.04 0.04 0.04 0.04 0.04 0.04 0.04 0.04 0.04 0.04 0.04 0.04 0.04 0.04 0.04 0.04 0.04 0.04 0.04 0.04 0.04 0.04 0.04 0.04 0.04 0.04 0.04 0.04 0.04 0.04 0.04 0.04 0.04 0.04 0.04 0.04 0.04 
0.05 0.05 0.05 0.05 0.05 0.05 0.05 0.05 0.05 0.05 0.05 0.05 0.05 0.05 0.05 0.05 0.05 0.05 0.05 0.05 0.05 0.05 0.05 0.05 0.05 0.05 0.05 0.05 0.05 0.05 0.05 0.05 0.05 0.05 0.05 0.05 0.05 0.05 0.05 0.05 0.05 0.05 0.05 0.05 0.05 0.05 0.05 0.05 
0.06 0.06 0.06 0.06 0.06 0.06 0.06 0.06 0.06 0.06 0.06 0.06 0.06 0.06 0.06 0.06 0.06 0.06 0.06 0.06 0.06 0.06 0.06 0.06 0.06 0.06 0.06 0.06 0.06 0.06 0.06 0.06 0.06 0.06 0.06 0.06 0.06 0.06 0.06 0.06 0.06 0.06 0.06 0.06 0.06 0.06 0.06 0.06 
0.07 0.07 0.07 0.07 0.07 0.07 0.07 0.07 0.07 0.07 0.07 0.07 0.07 0.07 0.07 0.07 0.07 0.07 0.07 0.07 0.07 0.07 0.07 0.07 0.07 0.07 0.07 0.07 0.07 0.07 0.07 0.07 0.07 0.07 0.07 0.07 0.07 0.07 0.07 0.07 0.07 0.07 0.07 0.07 0.07 0.07 0.07 0.07 
0.08 0.08 0.08 0.08 0.08 0.08 0.08 0.08 0.08 0.08 0.08 0.08 0.08 0.08 0.08 0.08 0.08 0.08 0.08 0.08 0.08 0.08 0.08 0.08 0.08 0.08 0.08 0.08 0.08 0.08 0.08 0.08 0.08 0.08 0.08 0.08 0.08 0.08 0.08 0.08 0.08 0.08 0.08 0.08 0.08 0.08 0.08 0.08 
0.09 0.09 0.09 0.09 0.09 0.09 0.09 0.09 0.09 0.09 0.09 0.09 0.09 0.09 0.09 0.09 0.09 0.09 0.09 0.09 0.09 0.09 0.09 0.09 0.09 0.09 0.09 0.09 0.09 0.09 0.09 0.09 0.09 0.09 0.09 0.09 0.09 0.09 0.09 0.09 0.09 0.09 0.09 0.09 0.09 0.09 0.09 0.09 
0.1 0.1 0.1 0.1 0.1 0.1 0.1 0.1 0.1 0.1 0.1 0.1 0.1 0.1 0.1 0.1 0.1 0.1 0.1 0.1 0.1 0.1 0.1 0.1 0.1 0.1 0.1 0.1 0.1 0.1 0.1 0.1 0.1 0.1 0.1 0.1 0.1 0.1 0.1 0.1 0.1 0.1 0.1 0.1 0.1 0.1 0.1 0.1 
0.5 0.5 0.5 0.5 0.5 0.5 0.5 0.5 0.5 0.5 0.5 0.5 0.5 0.5 0.5 0.5 0.5 0.5 0.5 0.5 0.5 0.5 0.5 0.5 0.5 0.5 0.5 0.5 0.5 0.5 0.5 0.5 0.5 0.5 0.5 0.5 0.5 0.5 0.5 0.5 0.5 0.5 0.5 0.5 0.5 0.5 0.5 0.5 
1 1 1 1 1 1 1 1 1 1 1 1 1 1 1 1 1 1 1 1 1 1 1 1 1 1 1 1 1 1 1 1 1 1 1 1 1 1 1 1 1 1 1 1 1 1 1 1 
